p tw 440 6601 7 
1 8 
1 21 
2 9 
2 10 
2 22 
3 7 
3 10 
3 251 
4 8 
4 9 
4 252 
5 7 
5 9 
5 361 
6 8 
6 10 
6 362 
11 17 
11 18 
11 31 
12 19 
12 20 
12 32 
13 17 
13 20 
13 101 
14 18 
14 19 
14 102 
15 17 
15 19 
15 351 
16 18 
16 20 
16 352 
21 27 
21 28 
22 29 
22 30 
23 27 
23 30 
23 201 
24 28 
24 29 
24 202 
25 27 
25 29 
25 221 
26 28 
26 30 
26 222 
31 37 
31 38 
32 39 
32 40 
33 37 
33 40 
33 51 
34 38 
34 39 
34 52 
35 37 
35 39 
35 103 
36 38 
36 40 
36 104 
41 47 
41 48 
41 331 
42 49 
42 50 
42 332 
43 47 
43 50 
43 381 
44 48 
44 49 
44 382 
45 47 
45 49 
45 411 
46 48 
46 50 
46 412 
51 57 
51 58 
52 59 
52 60 
53 57 
53 60 
53 281 
54 58 
54 59 
54 282 
55 57 
55 59 
55 431 
56 58 
56 60 
56 432 
61 67 
61 68 
61 141 
62 69 
62 70 
62 142 
63 67 
63 70 
63 301 
64 68 
64 69 
64 302 
65 67 
65 69 
65 413 
66 68 
66 70 
66 414 
71 77 
71 78 
71 151 
72 79 
72 80 
72 152 
73 77 
73 80 
73 241 
74 78 
74 79 
74 242 
75 77 
75 79 
75 253 
76 78 
76 80 
76 254 
81 87 
81 88 
81 203 
82 89 
82 90 
82 204 
83 87 
83 90 
83 223 
84 88 
84 89 
84 224 
85 87 
85 89 
85 261 
86 88 
86 90 
86 262 
91 97 
91 98 
91 271 
92 99 
92 100 
92 272 
93 97 
93 100 
93 321 
94 98 
94 99 
94 322 
95 97 
95 99 
95 433 
96 98 
96 100 
96 434 
101 107 
101 108 
102 109 
102 110 
103 107 
103 110 
104 108 
104 109 
105 107 
105 109 
105 191 
106 108 
106 110 
106 192 
111 117 
111 118 
111 143 
112 119 
112 120 
112 144 
113 117 
113 120 
113 211 
114 118 
114 119 
114 212 
115 117 
115 119 
115 421 
116 118 
116 120 
116 422 
121 127 
121 128 
121 255 
122 129 
122 130 
122 256 
123 127 
123 130 
123 291 
124 128 
124 129 
124 292 
125 127 
125 129 
125 303 
126 128 
126 130 
126 304 
131 137 
131 138 
131 181 
132 139 
132 140 
132 182 
133 137 
133 140 
133 263 
134 138 
134 139 
134 264 
135 137 
135 139 
135 293 
136 138 
136 140 
136 294 
141 147 
141 148 
142 149 
142 150 
143 147 
143 150 
144 148 
144 149 
145 147 
145 149 
145 423 
146 148 
146 150 
146 424 
151 157 
151 158 
152 159 
152 160 
153 157 
153 160 
153 323 
154 158 
154 159 
154 324 
155 157 
155 159 
155 371 
156 158 
156 160 
156 372 
161 167 
161 168 
161 325 
162 169 
162 170 
162 326 
163 167 
163 170 
163 353 
164 168 
164 169 
164 354 
165 167 
165 169 
165 373 
166 168 
166 170 
166 374 
171 177 
171 178 
171 213 
172 179 
172 180 
172 214 
173 177 
173 180 
173 295 
174 178 
174 179 
174 296 
175 177 
175 179 
175 383 
176 178 
176 180 
176 384 
181 187 
181 188 
182 189 
182 190 
183 187 
183 190 
183 205 
184 188 
184 189 
184 206 
185 187 
185 189 
185 231 
186 188 
186 190 
186 232 
191 197 
191 198 
192 199 
192 200 
193 197 
193 200 
193 401 
194 198 
194 199 
194 402 
195 197 
195 199 
195 425 
196 198 
196 200 
196 426 
201 207 
201 208 
202 209 
202 210 
203 207 
203 210 
204 208 
204 209 
205 207 
205 209 
206 208 
206 210 
211 217 
211 218 
212 219 
212 220 
213 217 
213 220 
214 218 
214 219 
215 217 
215 219 
215 283 
216 218 
216 220 
216 284 
221 227 
221 228 
222 229 
222 230 
223 227 
223 230 
224 228 
224 229 
225 227 
225 229 
225 305 
226 228 
226 230 
226 306 
231 237 
231 238 
232 239 
232 240 
233 237 
233 240 
233 285 
234 238 
234 239 
234 286 
235 237 
235 239 
235 415 
236 238 
236 240 
236 416 
241 247 
241 248 
242 249 
242 250 
243 247 
243 250 
243 333 
244 248 
244 249 
244 334 
245 247 
245 249 
245 341 
246 248 
246 250 
246 342 
251 257 
251 258 
252 259 
252 260 
253 257 
253 260 
254 258 
254 259 
255 257 
255 259 
256 258 
256 260 
261 267 
261 268 
262 269 
262 270 
263 267 
263 270 
264 268 
264 269 
265 267 
265 269 
265 403 
266 268 
266 270 
266 404 
271 277 
271 278 
272 279 
272 280 
273 277 
273 280 
273 355 
274 278 
274 279 
274 356 
275 277 
275 279 
275 391 
276 278 
276 280 
276 392 
281 287 
281 288 
282 289 
282 290 
283 287 
283 290 
284 288 
284 289 
285 287 
285 289 
286 288 
286 290 
291 297 
291 298 
292 299 
292 300 
293 297 
293 300 
294 298 
294 299 
295 297 
295 299 
296 298 
296 300 
301 307 
301 308 
302 309 
302 310 
303 307 
303 310 
304 308 
304 309 
305 307 
305 309 
306 308 
306 310 
311 317 
311 318 
311 363 
312 319 
312 320 
312 364 
313 317 
313 320 
313 393 
314 318 
314 319 
314 394 
315 317 
315 319 
315 435 
316 318 
316 320 
316 436 
321 327 
321 328 
322 329 
322 330 
323 327 
323 330 
324 328 
324 329 
325 327 
325 329 
326 328 
326 330 
331 337 
331 338 
332 339 
332 340 
333 337 
333 340 
334 338 
334 339 
335 337 
335 339 
335 385 
336 338 
336 340 
336 386 
341 347 
341 348 
342 349 
342 350 
343 347 
343 350 
343 375 
344 348 
344 349 
344 376 
345 347 
345 349 
345 405 
346 348 
346 350 
346 406 
351 357 
351 358 
352 359 
352 360 
353 357 
353 360 
354 358 
354 359 
355 357 
355 359 
356 358 
356 360 
361 367 
361 368 
362 369 
362 370 
363 367 
363 370 
364 368 
364 369 
365 367 
365 369 
365 395 
366 368 
366 370 
366 396 
371 377 
371 378 
372 379 
372 380 
373 377 
373 380 
374 378 
374 379 
375 377 
375 379 
376 378 
376 380 
381 387 
381 388 
382 389 
382 390 
383 387 
383 390 
384 388 
384 389 
385 387 
385 389 
386 388 
386 390 
391 397 
391 398 
392 399 
392 400 
393 397 
393 400 
394 398 
394 399 
395 397 
395 399 
396 398 
396 400 
401 407 
401 408 
402 409 
402 410 
403 407 
403 410 
404 408 
404 409 
405 407 
405 409 
406 408 
406 410 
411 417 
411 418 
412 419 
412 420 
413 417 
413 420 
414 418 
414 419 
415 417 
415 419 
416 418 
416 420 
421 427 
421 428 
422 429 
422 430 
423 427 
423 430 
424 428 
424 429 
425 427 
425 429 
426 428 
426 430 
431 437 
431 438 
432 439 
432 440 
433 437 
433 440 
434 438 
434 439 
435 437 
435 439 
436 438 
436 440 
